(set-logic ALL)
(set-option :produce-models true)
(declare-sort BoundSet 0)
(declare-sort UnboundSet 0)
(set-option :finite-model-find true)
(declare-fun IsFourToEightTimes (BoundSet) Bool)
(declare-fun IsVenting (BoundSet) Bool)
(assert (not (exists ((c BoundSet)) (exists ((d BoundSet)) (and (IsFourToEightTimes c) (IsVenting d))))))
(check-sat)
(get-model)